Route #1: 0 31 91 21 118 12 76 15 106 7 97 19 68 22 100 92 114 8 3 45 39 93 0
Route #2: 0 50 10 94 16 55 70 2 113 109 82 98 85 60 37 35 11 40 72 112 96 107 0
Route #3: 0 116 71 6 111 34 27 56 1 24 57 53 89 66 18 28 9 99 13 64 43 79 0
Route #4: 0 20 102 78 81 4 5 117 108 44 83 58 110 86 65 115 36 67 25 73 38 119 0
Route #5: 0 88 52 80 32 49 23 14 48 74 46 75 17 103 26 47 105 104 59 77 54 61 0
Route #6: 0 84 87 62 90 69 95 51 63 101 41 42 33 30 29 0
Cost 21646:
